c uprop, v00.0, 
c reading from data/prog742.c.cnf
c done reading: 0.003579
p cnf 92 328
-35 -40 0
-40 -42 0
35 40 42 0
35 42 -50 0
-35 -42 -50 0
-35 42 50 0
35 -42 50 0
40 -53 0
-53 -55 0
-40 53 55 0
-40 55 -61 0
40 -55 -61 0
40 55 61 0
-40 -55 61 0
53 -64 0
-53 64 0
-53 -67 0
53 67 0
64 -71 0
-64 71 0
-38 -64 0
38 64 0
-45 71 0
45 -71 0
-57 -71 0
57 71 0
-33 45 0
33 -45 0
-31 -45 0
31 45 0
-29 33 0
29 -33 0
-28 -33 0
28 33 0
-27 35 0
27 -35 0
26 -42 0
-26 42 0
24 -55 0
-24 55 0
26 -48 0
35 -48 0
-26 -35 48 0
-26 -35 -52 0
26 35 -52 0
-26 35 52 0
26 -35 52 0
-24 -42 60 0
-24 -48 60 0
-42 -48 60 0
24 42 -60 0
24 48 -60 0
42 48 -60 0
24 -60 -63 0
42 -60 -63 0
48 -60 -63 0
-24 60 63 0
-42 60 63 0
-48 60 63 0
-24 -42 -48 63 0
24 42 48 -63 0
-55 -60 0
-55 69 0
-60 69 0
55 60 -69 0
-25 -35 0
-25 -42 0
25 35 42 0
-22 35 42 0
-22 -35 -42 0
22 -35 42 0
22 35 -42 0
-23 25 0
-23 -55 0
23 -25 55 0
-20 -25 55 0
-20 25 -55 0
20 25 55 0
20 -25 -55 0
23 -73 0
-27 -73 0
-23 27 73 0
-23 27 -75 0
23 -27 -75 0
23 27 75 0
-23 -27 75 0
73 -76 0
-52 -76 0
52 -73 76 0
52 -73 -78 0
-52 73 -78 0
52 73 78 0
-52 -73 78 0
76 -79 0
-63 -79 0
63 -76 79 0
63 -76 -81 0
-63 76 -81 0
63 76 81 0
-63 -76 81 0
79 -82 0
-69 -82 0
69 -79 82 0
69 -79 -84 0
-69 79 -84 0
69 79 84 0
-69 -79 84 0
82 -85 0
-82 85 0
-41 -82 0
41 82 0
-51 85 0
51 -85 0
-54 -85 0
54 85 0
51 -62 0
-51 62 0
-51 -65 0
51 65 0
62 -68 0
-62 68 0
-62 -72 0
62 72 0
-39 68 0
39 -68 0
-46 -68 0
46 68 0
39 -58 0
-39 58 0
-34 -39 0
34 39 0
-30 -87 0
30 87 0
-89 -90 0
89 90 0
89 -91 0
-89 91 0
-89 -92 0
89 92 0
36 -87 -91 0
-36 87 0
-36 91 0
-36 87 91 0
-36 -43 0
-36 -43 87 0
-36 -43 91 0
36 43 -87 0
36 43 -91 0
-43 87 91 0
-36 56 -89 0
-56 89 0
36 -56 0
36 -56 89 0
-49 -56 0
-49 -56 89 0
36 -49 -56 0
49 56 -89 0
-36 49 56 0
36 -49 89 0
18 -56 0
-18 56 0
-17 43 0
17 -43 0
-16 -43 0
16 43 0
15 -49 -87 0
15 -17 -49 0
15 -17 -87 0
-15 49 87 0
-15 17 49 0
-15 17 87 0
-14 -15 49 0
-14 -15 87 0
-14 -15 17 0
14 15 -49 0
14 15 -87 0
14 15 -17 0
14 -17 -49 -87 0
-14 17 49 87 0
-18 86 -89 0
-15 -18 86 0
-15 86 -89 0
18 -86 89 0
15 18 -86 0
15 -86 89 0
18 -86 -88 0
-86 -88 89 0
15 -86 -88 0
-18 86 88 0
86 88 -89 0
-15 86 88 0
-15 -18 88 -89 0
15 18 -88 89 0
13 -86 0
-13 86 0
-12 14 0
12 -14 0
-11 -14 0
11 14 0
10 -87 -88 0
10 -12 -88 0
10 -12 -87 0
-10 87 88 0
-10 12 88 0
-10 12 87 0
-9 -10 88 0
-9 -10 87 0
-9 -10 12 0
9 10 -88 0
9 10 -87 0
9 10 -12 0
9 -12 -87 -88 0
-9 12 87 88 0
8 -13 -89 0
8 -10 -13 0
8 -10 -89 0
-8 13 89 0
-8 10 13 0
-8 10 89 0
-7 -8 13 0
-7 -8 89 0
-7 -8 10 0
7 8 -13 0
7 8 -89 0
7 8 -10 0
7 -10 -13 -89 0
-7 10 13 89 0
6 -8 0
-6 8 0
9 -66 0
-9 66 0
-9 -70 0
9 70 0
-7 37 -87 0
-7 37 -66 0
37 -66 -87 0
7 -37 87 0
7 -37 66 0
-37 66 87 0
7 -37 -44 0
-37 -44 87 0
-37 -44 66 0
-7 37 44 0
37 44 -87 0
37 44 -66 0
-7 44 -66 -87 0
7 -44 66 87 0
-6 -89 0
-6 -37 0
-37 -89 0
-6 32 0
32 -89 0
32 -37 0
-6 32 -37 -89 0
6 -32 37 89 0
-5 -87 0
5 87 0
-4 -92 0
4 92 0
-3 -16 0
3 16 0
-2 -11 0
2 11 0
-47 -70 0
47 70 0
-44 -59 0
44 59 0
-1 -32 0
1 32 0
-21 35 0
-21 87 0
21 -35 -87 0
-35 -87 0
35 87 0
19 -42 -92 0
19 -21 -42 0
19 -21 -92 0
-19 42 92 0
-19 21 42 0
-19 21 92 0
-19 42 0
-19 92 0
-19 21 0
21 42 92 0
-16 -55 74 0
-19 -55 74 0
-16 -19 74 0
16 55 -74 0
19 55 -74 0
16 19 -74 0
-55 74 0
-16 74 0
-19 74 0
-16 -19 -55 0
-11 -27 77 0
-27 -74 77 0
-11 -74 77 0
11 27 -77 0
27 74 -77 0
11 74 -77 0
-27 77 0
-11 77 0
-74 77 0
-11 -27 -74 0
-52 -70 80 0
-52 -77 80 0
-70 -77 80 0
52 70 -80 0
52 77 -80 0
70 77 -80 0
-52 80 0
-70 80 0
-77 80 0
-52 -70 -77 0
-44 -63 83 0
-63 -80 83 0
-44 -80 83 0
44 63 -83 0
63 80 -83 0
44 80 -83 0
63 -83 0
44 -83 0
80 -83 0
44 63 80 0
-32 -69 0
-69 -83 0
-32 -83 0
32 69 83 0
